; benchmark generated from python API
(set-info :status unknown)
(declare-datatypes ((RealState 0)) (((RMk1 (rval1 Real)) (RMk2 (rval2 Real)))))
 (assert
 (forall ((|v17:0| Real) )(forall ((|v16:1| Real) )(forall ((|v15:2| Real) )(forall ((|v14:3| Real) )(forall ((|v13:4| Real) )(forall ((|v12:5| Real) )(exists ((|v11:6_st| RealState) (val!7404 Real) )(exists ((|v10:7_st| RealState) (val!7405 Real) )(exists ((|v9:8_st| RealState) (val!7406 Real) )(exists ((|v8:9_st| RealState) (val!7407 Real) )(exists ((|v7:10_st| RealState) (val!7408 Real) )(exists ((|v6:11_st| RealState) (val!7409 Real) )(forall ((|v5:12| Real) )(forall ((|v4:13| Real) )(forall ((|v3:14| Real) )(forall ((|v2:15| Real) )(forall ((|v1:16| Real) )(forall ((|v0:17| Real) )(let ((?x3347 (* 16.0 |v5:12|)))
 (let ((?x1895 (- 5.0)))
 (let ((?x3276 (* ?x1895 |v2:15|)))
 (let ((?x946 (+ (+ (+ (* (- 14.0) (rval2 |v7:10_st|)) (* (- 15.0) |v4:13|)) ?x3276) ?x3347)))
 (let ((?x1950 (- 19.0)))
 (let ((?x2648 (+ (+ (* (- 4.0) |v16:1|) (* 19.0 (rval2 |v6:11_st|))) (* 0.0 (rval2 |v6:11_st|)))))
 (let ((?x3098 (- 2.0)))
 (let ((?x923 (* 13.0 |v4:13|)))
 (let ((?x1422 (rval2 |v8:9_st|)))
 (let ((?x2980 (* 17.0 ?x1422)))
 (let (($x3104 (<= (+ (+ (+ (* (- 9.0) |v14:3|) (* (- 18.0) |v0:17|)) ?x2980) ?x923) ?x3098)))
 (let ((?x848 (* 4.0 |v0:17|)))
 (let ((?x260 (+ (+ (* (- 15.0) |v14:3|) (* (- 7.0) |v13:4|)) (* (- 20.0) |v15:2|))))
 (let ((?x3176 (rval2 |v10:7_st|)))
 (let ((?x794 (* 18.0 ?x3176)))
 (let ((?x649 (+ (+ (+ (* 3.0 |v13:4|) (* (- 16.0) |v0:17|)) (* 16.0 ?x1422)) ?x794)))
 (let (($x1830 (or (or (<= ?x649 14.0) (<= (+ ?x260 ?x848) ?x3098)) (and $x3104 (<= (+ ?x2648 (* ?x1950 |v15:2|)) ?x1950)))))
 (let ((?x2801 (- 15.0)))
 (let ((?x148 (* 11.0 |v4:13|)))
 (let (($x1954 (<= (+ (+ (+ (* (- 18.0) |v14:3|) (* ?x1950 |v1:16|)) (* 4.0 |v14:3|)) ?x148) ?x2801)))
 (let ((?x438 (- 18.0)))
 (let ((?x646 (* 13.0 |v1:16|)))
 (let ((?x1584 (+ (+ (+ (* ?x3098 (rval2 |v7:10_st|)) (* 16.0 |v17:0|)) (* (- 16.0) |v2:15|)) ?x646)))
 (let ((?x2043 (* 3.0 |v13:4|)))
 (let ((?x944 (+ (+ (+ (* ?x2801 |v13:4|) (* (- 10.0) (rval2 |v6:11_st|))) (* ?x438 |v3:14|)) ?x2043)))
 (let ((?x2564 (* 12.0 |v1:16|)))
 (let ((?x2877 (rval2 |v9:8_st|)))
 (let ((?x273 (* 17.0 ?x2877)))
 (let (($x1094 (<= (+ (+ (+ (* 2.0 (rval2 |v7:10_st|)) (* (- 13.0) |v15:2|)) ?x273) ?x2564) 10.0)))
 (let ((?x1464 (+ (+ (+ (* 18.0 ?x2877) (* 18.0 (rval2 |v7:10_st|))) (* 20.0 |v2:15|)) (* (- 10.0) ?x1422))))
 (let ((?x1364 (- 14.0)))
 (let ((?x1661 (+ (+ (* (- 4.0) (rval2 |v7:10_st|)) (* (- 6.0) ?x2877)) (* ?x1950 ?x3176))))
 (let ((?x3079 (- 1.0)))
 (let ((?x622 (* (- 3.0) |v4:13|)))
 (let ((?x247 (+ (+ (+ (* 0.0 (rval2 |v11:6_st|)) (* 0.0 (rval2 |v11:6_st|))) ?x622) (* 14.0 |v14:3|))))
 (let ((?x3075 (* 8.0 |v4:13|)))
 (let ((?x1065 (+ (+ (+ (* (- 17.0) (rval2 |v6:11_st|)) (* (- 8.0) |v12:5|)) ?x3075) (* ?x1895 (rval2 |v11:6_st|)))))
 (let (($x2735 (or (or (<= ?x1065 18.0) (<= ?x247 ?x3079)) (and (<= (+ ?x1661 (* 12.0 |v16:1|)) ?x1364) (<= ?x1464 8.0)))))
 (let ((?x244 (rval2 |v7:10_st|)))
 (let (($x1430 (<= (+ (+ (+ (* 3.0 |v12:5|) (* 11.0 |v14:3|)) (* 16.0 |v16:1|)) ?x244) ?x3098)))
 (let (($x3215 (and (or $x1430 $x2735) (or (or (or $x1094 (<= ?x944 6.0)) (and (<= ?x1584 ?x438) $x1954)) $x1830))))
 (let ((?x3454 (- 7.0)))
 (let ((?x687 (* ?x3098 |v5:12|)))
 (let ((?x46 (+ (+ (+ (* 16.0 |v0:17|) (* (- 11.0) ?x2877)) (* (- 10.0) |v4:13|)) ?x687)))
 (let ((?x210 (- 13.0)))
 (let ((?x548 (* 3.0 |v5:12|)))
 (let ((?x1558 (+ (+ (+ (* (- 17.0) |v17:0|) (* 4.0 |v13:4|)) (* (- 11.0) ?x1422)) ?x548)))
 (let ((?x705 (* 10.0 |v2:15|)))
 (let ((?x2189 (* 15.0 |v15:2|)))
 (let ((?x426 (+ (+ (+ (* (- 6.0) (rval2 |v6:11_st|)) (* 8.0 (rval2 |v6:11_st|))) ?x2189) ?x705)))
 (let ((?x2862 (* ?x1364 ?x244)))
 (let ((?x1574 (+ (+ (* 20.0 |v2:15|) (* ?x1950 |v3:14|)) (* (- 20.0) |v5:12|))))
 (let (($x3168 (and (or (<= (+ ?x1574 ?x2862) 18.0) (<= ?x426 ?x1364)) (and (<= ?x1558 ?x210) (<= ?x46 ?x3454)))))
 (let ((?x576 (+ (+ (+ (* ?x438 |v17:0|) (* ?x210 ?x3176)) (* (- 6.0) |v5:12|)) (* (- 10.0) |v17:0|))))
 (let ((?x2674 (- 8.0)))
 (let (($x2652 (<= (+ (+ (+ ?x794 (* 15.0 |v0:17|)) (* 4.0 |v15:2|)) (* 19.0 ?x3176)) ?x2674)))
 (let ((?x859 (* ?x3098 |v2:15|)))
 (let (($x1721 (<= (+ (+ (+ (* ?x3098 |v12:5|) (* 8.0 |v14:3|)) (* ?x438 |v1:16|)) ?x859) 3.0)))
 (let ((?x1474 (- 10.0)))
 (let ((?x1780 (- 16.0)))
 (let ((?x1248 (* ?x1780 |v4:13|)))
 (let ((?x1352 (+ (+ (+ (* ?x1950 |v17:0|) (* 2.0 |v16:1|)) (* ?x438 (rval2 |v11:6_st|))) ?x1248)))
 (let ((?x2357 (+ (+ (+ (* 15.0 ?x3176) (* 3.0 |v3:14|)) (* 14.0 |v5:12|)) (* ?x2674 |v16:1|))))
 (let ((?x3208 (rval2 |v6:11_st|)))
 (let ((?x1016 (* 15.0 ?x3208)))
 (let ((?x1015 (+ (+ (+ (* 3.0 (rval2 |v11:6_st|)) (* (- 20.0) |v14:3|)) (* ?x1950 |v14:3|)) ?x1016)))
 (let ((?x3267 (* 0.0 |v1:16|)))
 (let (($x1170 (<= (+ (+ (+ (* ?x1780 |v14:3|) (* (- 9.0) |v2:15|)) (* 6.0 |v0:17|)) ?x3267) 14.0)))
 (let ((?x1703 (+ (+ (+ (* ?x3454 |v2:15|) (* (- 17.0) |v15:2|)) (* 6.0 |v12:5|)) (* 11.0 ?x3176))))
 (let (($x3289 (or (and (<= ?x1703 ?x1895) $x1170) (or (<= ?x1015 5.0) (<= ?x2357 8.0)))))
 (let ((?x2228 (+ (+ (+ (* (- 17.0) ?x1422) (* ?x438 |v2:15|)) (* ?x1474 |v3:14|)) (* 17.0 |v12:5|))))
 (let ((?x366 (+ (+ (+ (* 4.0 |v3:14|) (* 10.0 |v14:3|)) (* 8.0 ?x244)) (* ?x1780 |v15:2|))))
 (let (($x953 (<= (+ (+ (+ (* 8.0 |v2:15|) (* 2.0 |v3:14|)) ?x3075) (* 18.0 |v17:0|)) ?x3454)))
 (let (($x1691 (<= (+ (+ (+ (* 18.0 |v4:13|) (* ?x210 ?x3208)) |v13:4|) (* 2.0 |v2:15|)) ?x1950)))
 (let (($x1896 (and (or (and $x1691 $x953) (and (<= ?x366 18.0) (<= ?x2228 2.0))) $x3289)))
 (let (($x1547 (and $x1896 (or (or (or (<= ?x1352 ?x1474) $x1721) (and $x2652 (<= ?x576 1.0))) $x3168))))
 (let (($x785 (not (= |v6:11_st| (RMk1 val!7409)))))
 (let (($x1017 (not (= |v7:10_st| (RMk1 val!7408)))))
 (let (($x2912 (not (= |v8:9_st| (RMk1 val!7407)))))
 (let (($x2702 (not (= |v9:8_st| (RMk1 val!7406)))))
 (let (($x1978 (not (= |v10:7_st| (RMk1 val!7405)))))
 (let (($x891 (not (= |v11:6_st| (RMk1 val!7404)))))
 (and $x891 $x1978 $x2702 $x2912 $x1017 $x785 (and (or $x1547 $x3215) (<= ?x946 12.0))))))))))))))))))))))))))))))))))))))))))))))))))))))))))))))))))))))))))))))))))))))
 )
 )
 )
 )
 )
 )
 )
 )
 )
 )
 )
 )
 )
 )
 )
 )
 )
 )
(check-sat)
